networks/zoo_124_757/zoo_124_757-lower.txt
Number of groups: 58
Flow 1: {1 56 0} {56 8 0} {8 70 0} 
Flow 2: {8 44 0} {44 106 0} 
Flow 3: {56 118 0} 
Flow 4: {2 56 0} Flow 5: {3 4 0} {4 56 0} Flow 6: {8 28 0} {28 90 0} 
Flow 7: {56 33 0} {33 95 0} 
Flow 8: {8 34 0} {34 96 0} 
Flow 9: {8 42 0} {42 104 0} 
Flow 11: {8 52 0} {52 114 0} 
Flow 16: {5 8 0} Flow 22: {8 56 0} Flow 23: {6 8 0} Flow 29: {7 8 0} Flow 31: {56 2 0} {2 64 0} 
Flow 32: {56 4 0} {4 3 0} {3 65 0} 
Flow 33: {4 66 0} 
Flow 34: {8 5 0} {5 67 0} 
Flow 35: {8 6 0} {6 68 0} 
Flow 36: {8 7 0} {7 69 0} 
Flow 37: {34 9 0} {9 71 0} 
Flow 38: {8 11 0} {11 73 0} 
Flow 39: {8 12 0} {12 74 0} 
Flow 40: {34 13 0} {13 75 0} 
Flow 41: {34 14 0} {14 76 0} 
Flow 42: {42 15 0} {15 77 0} 
Flow 43: {42 16 0} {16 78 0} 
Flow 44: {8 17 0} {17 79 0} 
Flow 45: {8 18 0} {18 80 0} 
Flow 46: {44 19 0} {19 81 0} 
Flow 47: {44 20 0} {20 82 0} 
Flow 48: {44 43 0} {43 21 0} {21 83 0} 
Flow 49: {21 22 0} {22 84 0} 
Flow 50: {21 23 0} {23 85 0} 
Flow 51: {8 24 0} {24 86 0} 
Flow 52: {8 25 0} {25 87 0} 
Flow 53: {8 26 0} {26 88 0} 
Flow 54: {42 27 0} {27 89 0} 
Flow 56: {34 29 0} {29 91 0} 
Flow 57: {42 30 0} {30 92 0} 
Flow 58: {42 31 0} {31 93 0} 
Flow 59: {8 33 0} Flow 61: {8 36 0} {36 35 0} {35 97 0} 
Flow 62: {36 98 0} 
Flow 63: {28 37 0} {37 99 0} 
Flow 64: {28 38 0} {38 100 0} 
Flow 65: {28 39 0} {39 101 0} 
Flow 66: {28 40 0} {40 102 0} 
Flow 67: {42 41 0} {41 103 0} 
Flow 69: {43 105 0} 
Flow 71: {52 45 0} {45 107 0} 
Flow 72: {8 46 0} {46 108 0} 
Flow 73: {8 47 0} {47 109 0} 
Flow 74: {8 48 0} {48 110 0} 
Flow 75: {44 49 0} {49 111 0} 
Flow 76: {52 50 0} {50 112 0} 
Flow 77: {52 51 0} {51 113 0} 
Flow 79: {56 53 0} {53 115 0} 
Flow 80: {4 54 0} {54 116 0} 
Flow 81: {56 55 0} {55 117 0} 
Flow 83: {56 57 0} {57 119 0} 
Flow 84: {56 58 0} {58 120 0} 
Flow 85: {56 59 0} {59 121 0} 
Flow 86: {56 61 0} {61 123 0} 
Flow 87: {56 62 0} {62 124 0} 
Flow 88: {9 34 0} {34 8 0} Flow 90: {10 34 0} Flow 96: {11 8 0} Flow 110: {12 8 0} Flow 112: {13 34 0} Flow 134: {14 34 0} Flow 146: {15 42 0} {42 8 0} Flow 154: {16 42 0} Flow 160: {17 8 0} Flow 163: {18 8 0} Flow 166: {19 44 0} {44 8 0} Flow 173: {20 44 0} Flow 182: {21 43 0} {43 44 0} Flow 224: {22 21 0} Flow 226: {23 21 0} Flow 233: {24 8 0} Flow 239: {25 8 0} Flow 247: {26 8 0} Flow 251: {27 42 0} Flow 258: {28 8 0} Flow 303: {29 34 0} Flow 310: {30 42 0} Flow 320: {31 42 0} Flow 342: {32 34 0} Flow 350: {33 56 0} Flow 351: {33 8 0} Flow 419: {35 36 0} {36 8 0} Flow 434: {37 28 0} Flow 440: {38 28 0} Flow 446: {39 28 0} Flow 456: {40 28 0} Flow 470: {41 42 0} Flow 579: {45 52 0} {52 8 0} Flow 585: {46 8 0} Flow 597: {47 8 0} Flow 612: {48 8 0} Flow 614: {49 44 0} Flow 633: {50 52 0} Flow 641: {51 52 0} Flow 643: {53 56 0} Flow 651: {54 4 0} Flow 659: {55 56 0} Flow 726: {57 56 0} Flow 733: {58 56 0} Flow 741: {59 56 0} Flow 744: {60 56 0} Flow 746: {61 56 0} Flow 750: {62 56 0} Time taken running everything: 0 seconds
