networks/zoo_124_757/zoo_124_757-lower.sol
<?xml version = "1.0" encoding="UTF-8" standalone="yes"?>
<CPLEXSolution version="1.2">
 <header
   problemName="networks/zoo_124_757/zoo_124_757-lower.lp"
   solutionName="incumbent"
   solutionIndex="-1"
   objectiveValue="58"
   solutionTypeValue="3"
   solutionTypeString="primal"
   solutionStatusValue="101"
   solutionStatusString="integer optimal solution"
   solutionMethodString="mip"
   primalFeasible="1"
   dualFeasible="1"
   MIPNodes="0"
   MIPIterations="0"
   writeLevel="3"/>
 <quality
   epInt="1.0000000000000001e-05"
   epRHS="9.9999999999999995e-07"
   maxIntInfeas="0"
   maxPrimalInfeas="0"
   maxX="1"
   maxSlack="1"/>
 <variables>
  <variable name="Y(1,8)" index="7" value="1"/>
  <variable name="Y(2,44)" index="163" value="1"/>
  <variable name="Y(3,56)" index="295" value="1"/>
  <variable name="Y(6,28)" index="627" value="1"/>
  <variable name="Y(7,33)" index="752" value="1"/>
  <variable name="Y(8,34)" index="873" value="1"/>
  <variable name="Y(9,42)" index="1001" value="1"/>
  <variable name="Y(11,52)" index="1251" value="1"/>
  <variable name="Y(31,2)" index="3601" value="1"/>
  <variable name="Y(32,3)" index="3722" value="1"/>
  <variable name="Y(33,4)" index="3843" value="1"/>
  <variable name="Y(34,5)" index="3964" value="1"/>
  <variable name="Y(35,6)" index="4085" value="1"/>
  <variable name="Y(36,7)" index="4206" value="1"/>
  <variable name="Y(37,9)" index="4328" value="1"/>
  <variable name="Y(38,11)" index="4450" value="1"/>
  <variable name="Y(39,12)" index="4571" value="1"/>
  <variable name="Y(40,13)" index="4692" value="1"/>
  <variable name="Y(41,14)" index="4813" value="1"/>
  <variable name="Y(42,15)" index="4934" value="1"/>
  <variable name="Y(43,16)" index="5055" value="1"/>
  <variable name="Y(44,17)" index="5176" value="1"/>
  <variable name="Y(45,18)" index="5297" value="1"/>
  <variable name="Y(46,19)" index="5418" value="1"/>
  <variable name="Y(47,20)" index="5539" value="1"/>
  <variable name="Y(48,21)" index="5660" value="1"/>
  <variable name="Y(49,22)" index="5781" value="1"/>
  <variable name="Y(50,23)" index="5902" value="1"/>
  <variable name="Y(51,24)" index="6023" value="1"/>
  <variable name="Y(52,25)" index="6144" value="1"/>
  <variable name="Y(53,26)" index="6265" value="1"/>
  <variable name="Y(54,27)" index="6386" value="1"/>
  <variable name="Y(56,29)" index="6628" value="1"/>
  <variable name="Y(57,30)" index="6749" value="1"/>
  <variable name="Y(58,31)" index="6870" value="1"/>
  <variable name="Y(61,35)" index="7234" value="1"/>
  <variable name="Y(62,36)" index="7355" value="1"/>
  <variable name="Y(63,37)" index="7476" value="1"/>
  <variable name="Y(64,38)" index="7597" value="1"/>
  <variable name="Y(65,39)" index="7718" value="1"/>
  <variable name="Y(66,40)" index="7839" value="1"/>
  <variable name="Y(67,41)" index="7960" value="1"/>
  <variable name="Y(69,43)" index="8202" value="1"/>
  <variable name="Y(71,45)" index="8444" value="1"/>
  <variable name="Y(72,46)" index="8565" value="1"/>
  <variable name="Y(73,47)" index="8686" value="1"/>
  <variable name="Y(74,48)" index="8807" value="1"/>
  <variable name="Y(75,49)" index="8928" value="1"/>
  <variable name="Y(76,50)" index="9049" value="1"/>
  <variable name="Y(77,51)" index="9170" value="1"/>
  <variable name="Y(79,53)" index="9412" value="1"/>
  <variable name="Y(80,54)" index="9533" value="1"/>
  <variable name="Y(81,55)" index="9654" value="1"/>
  <variable name="Y(83,57)" index="9896" value="1"/>
  <variable name="Y(84,58)" index="10017" value="1"/>
  <variable name="Y(85,59)" index="10138" value="1"/>
  <variable name="Y(86,61)" index="10260" value="1"/>
  <variable name="Y(87,62)" index="10381" value="1"/>
  <variable name="X(1,56,1)" index="90840" value="1"/>
  <variable name="X(2,56,4)" index="91600" value="1"/>
  <variable name="X(2,64,31)" index="92384" value="1"/>
  <variable name="X(3,4,5)" index="93115" value="1"/>
  <variable name="X(3,65,32)" index="93899" value="1"/>
  <variable name="X(4,3,32)" index="94656" value="1"/>
  <variable name="X(4,54,80)" index="95461" value="1"/>
  <variable name="X(4,56,5)" index="96143" value="1"/>
  <variable name="X(4,66,33)" index="96928" value="1"/>
  <variable name="X(5,8,16)" index="97668" value="1"/>
  <variable name="X(5,67,34)" index="98443" value="1"/>
  <variable name="X(6,8,23)" index="99189" value="1"/>
  <variable name="X(6,68,35)" index="99958" value="1"/>
  <variable name="X(7,8,29)" index="100709" value="1"/>
  <variable name="X(7,69,36)" index="101473" value="1"/>
  <variable name="X(8,5,34)" index="102228" value="1"/>
  <variable name="X(8,6,35)" index="102986" value="1"/>
  <variable name="X(8,7,36)" index="103744" value="1"/>
  <variable name="X(8,11,38)" index="104503" value="1"/>
  <variable name="X(8,12,39)" index="105261" value="1"/>
  <variable name="X(8,17,44)" index="106023" value="1"/>
  <variable name="X(8,18,45)" index="106781" value="1"/>
  <variable name="X(8,24,51)" index="107544" value="1"/>
  <variable name="X(8,25,52)" index="108302" value="1"/>
  <variable name="X(8,26,53)" index="109060" value="1"/>
  <variable name="X(8,28,6)" index="109770" value="1"/>
  <variable name="X(8,33,59)" index="110580" value="1"/>
  <variable name="X(8,34,8)" index="111286" value="1"/>
  <variable name="X(8,36,61)" index="112096" value="1"/>
  <variable name="X(8,42,9)" index="112801" value="1"/>
  <variable name="X(8,44,2)" index="113551" value="1"/>
  <variable name="X(8,46,72)" index="114378" value="1"/>
  <variable name="X(8,47,73)" index="115136" value="1"/>
  <variable name="X(8,48,74)" index="115894" value="1"/>
  <variable name="X(8,52,11)" index="116588" value="1"/>
  <variable name="X(8,56,22)" index="117356" value="1"/>
  <variable name="X(8,70,1)" index="118092" value="1"/>
  <variable name="X(9,34,88)" index="118936" value="1"/>
  <variable name="X(9,71,37)" index="119642" value="1"/>
  <variable name="X(10,34,90)" index="120452" value="1"/>
  <variable name="X(11,8,96)" index="121215" value="1"/>
  <variable name="X(11,73,38)" index="121914" value="1"/>
  <variable name="X(12,8,110)" index="122743" value="1"/>
  <variable name="X(12,74,39)" index="123429" value="1"/>
  <variable name="X(13,34,112)" index="124259" value="1"/>
  <variable name="X(13,75,40)" index="124944" value="1"/>
  <variable name="X(14,34,134)" index="125795" value="1"/>
  <variable name="X(14,76,41)" index="126459" value="1"/>
  <variable name="X(15,42,146)" index="127321" value="1"/>
  <variable name="X(15,77,42)" index="127974" value="1"/>
  <variable name="X(16,42,154)" index="128843" value="1"/>
  <variable name="X(16,78,43)" index="129489" value="1"/>
  <variable name="X(17,8,160)" index="130363" value="1"/>
  <variable name="X(17,79,44)" index="131004" value="1"/>
  <variable name="X(18,8,163)" index="131880" value="1"/>
  <variable name="X(18,80,45)" index="132519" value="1"/>
  <variable name="X(19,44,166)" index="133397" value="1"/>
  <variable name="X(19,81,46)" index="134034" value="1"/>
  <variable name="X(20,44,173)" index="134918" value="1"/>
  <variable name="X(20,82,47)" index="135549" value="1"/>
  <variable name="X(21,22,49)" index="136308" value="1"/>
  <variable name="X(21,23,50)" index="137066" value="1"/>
  <variable name="X(21,43,182)" index="137955" value="1"/>
  <variable name="X(21,83,48)" index="138578" value="1"/>
  <variable name="X(22,21,224)" index="139511" value="1"/>
  <variable name="X(22,84,49)" index="140093" value="1"/>
  <variable name="X(23,21,226)" index="141027" value="1"/>
  <variable name="X(23,85,50)" index="141608" value="1"/>
  <variable name="X(24,8,233)" index="142548" value="1"/>
  <variable name="X(24,86,51)" index="143123" value="1"/>
  <variable name="X(25,8,239)" index="144068" value="1"/>
  <variable name="X(25,87,52)" index="144638" value="1"/>
  <variable name="X(26,8,247)" index="145590" value="1"/>
  <variable name="X(26,88,53)" index="146153" value="1"/>
  <variable name="X(27,42,251)" index="147108" value="1"/>
  <variable name="X(27,89,54)" index="147668" value="1"/>
  <variable name="X(28,8,258)" index="148629" value="1"/>
  <variable name="X(28,37,63)" index="149191" value="1"/>
  <variable name="X(28,38,64)" index="149949" value="1"/>
  <variable name="X(28,39,65)" index="150707" value="1"/>
  <variable name="X(28,40,66)" index="151465" value="1"/>
  <variable name="X(28,90,6)" index="152162" value="1"/>
  <variable name="X(29,34,303)" index="153216" value="1"/>
  <variable name="X(29,91,56)" index="153726" value="1"/>
  <variable name="X(30,42,310)" index="154737" value="1"/>
  <variable name="X(30,92,57)" index="155241" value="1"/>
  <variable name="X(31,42,320)" index="156261" value="1"/>
  <variable name="X(31,93,58)" index="156756" value="1"/>
  <variable name="X(32,34,342)" index="157797" value="1"/>
  <variable name="X(33,8,351)" index="158563" value="1"/>
  <variable name="X(33,56,350)" index="159319" value="1"/>
  <variable name="X(33,95,7)" index="159733" value="1"/>
  <variable name="X(34,8,88)" index="160571" value="1"/>
  <variable name="X(34,9,37)" index="161277" value="1"/>
  <variable name="X(34,13,40)" index="162037" value="1"/>
  <variable name="X(34,14,41)" index="162795" value="1"/>
  <variable name="X(34,29,56)" index="163567" value="1"/>
  <variable name="X(34,96,8)" index="164276" value="1"/>
  <variable name="X(35,36,419)" index="165444" value="1"/>
  <variable name="X(35,97,61)" index="165843" value="1"/>
  <variable name="X(36,8,419)" index="166958" value="1"/>
  <variable name="X(36,35,61)" index="167357" value="1"/>
  <variable name="X(36,98,62)" index="168115" value="1"/>
  <variable name="X(37,28,434)" index="169244" value="1"/>
  <variable name="X(37,99,63)" index="169630" value="1"/>
  <variable name="X(38,28,440)" index="170764" value="1"/>
  <variable name="X(38,100,64)" index="171145" value="1"/>
  <variable name="X(39,28,446)" index="172284" value="1"/>
  <variable name="X(39,101,65)" index="172660" value="1"/>
  <variable name="X(40,28,456)" index="173808" value="1"/>
  <variable name="X(40,102,66)" index="174175" value="1"/>
  <variable name="X(41,42,470)" index="175336" value="1"/>
  <variable name="X(41,103,67)" index="175690" value="1"/>
  <variable name="X(42,8,146)" index="176526" value="1"/>
  <variable name="X(42,15,42)" index="177179" value="1"/>
  <variable name="X(42,16,43)" index="177937" value="1"/>
  <variable name="X(42,27,54)" index="178705" value="1"/>
  <variable name="X(42,30,57)" index="179465" value="1"/>
  <variable name="X(42,31,58)" index="180223" value="1"/>
  <variable name="X(42,41,67)" index="180989" value="1"/>
  <variable name="X(42,104,9)" index="181688" value="1"/>
  <variable name="X(43,21,48)" index="182484" value="1"/>
  <variable name="X(43,44,182)" index="183375" value="1"/>
  <variable name="X(43,105,69)" index="184019" value="1"/>
  <variable name="X(44,8,166)" index="184873" value="1"/>
  <variable name="X(44,19,46)" index="185510" value="1"/>
  <variable name="X(44,20,47)" index="186268" value="1"/>
  <variable name="X(44,43,48)" index="187026" value="1"/>
  <variable name="X(44,49,75)" index="187810" value="1"/>
  <variable name="X(44,106,2)" index="188494" value="1"/>
  <variable name="X(45,52,579)" index="189828" value="1"/>
  <variable name="X(45,107,71)" index="190077" value="1"/>
  <variable name="X(46,8,585)" index="191348" value="1"/>
  <variable name="X(46,108,72)" index="191592" value="1"/>
  <variable name="X(47,8,597)" index="192874" value="1"/>
  <variable name="X(47,109,73)" index="193107" value="1"/>
  <variable name="X(48,8,612)" index="194403" value="1"/>
  <variable name="X(48,110,74)" index="194622" value="1"/>
  <variable name="X(49,44,614)" index="195919" value="1"/>
  <variable name="X(49,111,75)" index="196137" value="1"/>
  <variable name="X(50,52,633)" index="197452" value="1"/>
  <variable name="X(50,112,76)" index="197652" value="1"/>
  <variable name="X(51,52,641)" index="198974" value="1"/>
  <variable name="X(51,113,77)" index="199167" value="1"/>
  <variable name="X(52,8,579)" index="200426" value="1"/>
  <variable name="X(52,45,71)" index="200675" value="1"/>
  <variable name="X(52,50,76)" index="201437" value="1"/>
  <variable name="X(52,51,77)" index="202195" value="1"/>
  <variable name="X(52,114,11)" index="202886" value="1"/>
  <variable name="X(53,56,643)" index="204275" value="1"/>
  <variable name="X(53,115,79)" index="204468" value="1"/>
  <variable name="X(54,4,651)" index="205797" value="1"/>
  <variable name="X(54,116,80)" index="205983" value="1"/>
  <variable name="X(55,56,659)" index="207319" value="1"/>
  <variable name="X(55,117,81)" index="207498" value="1"/>
  <variable name="X(56,2,31)" index="208205" value="1"/>
  <variable name="X(56,4,32)" index="208963" value="1"/>
  <variable name="X(56,8,1)" index="209689" value="1"/>
  <variable name="X(56,33,7)" index="210452" value="1"/>
  <variable name="X(56,53,79)" index="211281" value="1"/>
  <variable name="X(56,55,81)" index="212040" value="1"/>
  <variable name="X(56,57,83)" index="212799" value="1"/>
  <variable name="X(56,58,84)" index="213557" value="1"/>
  <variable name="X(56,59,85)" index="214315" value="1"/>
  <variable name="X(56,61,86)" index="215073" value="1"/>
  <variable name="X(56,62,87)" index="215831" value="1"/>
  <variable name="X(56,118,3)" index="216504" value="1"/>
  <variable name="X(57,56,726)" index="217984" value="1"/>
  <variable name="X(57,119,83)" index="218098" value="1"/>
  <variable name="X(58,56,733)" index="219505" value="1"/>
  <variable name="X(58,120,84)" index="219613" value="1"/>
  <variable name="X(59,56,741)" index="221027" value="1"/>
  <variable name="X(59,121,85)" index="221128" value="1"/>
  <variable name="X(60,56,744)" index="222544" value="1"/>
  <variable name="X(61,56,746)" index="223303" value="1"/>
  <variable name="X(61,123,86)" index="223400" value="1"/>
  <variable name="X(62,56,750)" index="224821" value="1"/>
  <variable name="X(62,124,87)" index="224915" value="1"/>
 </variables>
</CPLEXSolution>
